NAME : ftv70Preorder.1595.tour
COMMENT : Length = 1595
COMMENT : Found by LKH [Keld Helsgaun] Sun Apr 19 19:25:41 2020
TYPE : TOUR
DIMENSION : 71
TOUR_SECTION
1
29
26
28
7
14
67
15
13
16
17
19
20
21
22
23
24
61
34
35
36
70
42
38
39
37
64
41
69
47
63
55
52
51
68
50
48
40
49
56
71
4
5
9
8
10
12
11
59
62
60
58
57
53
54
46
45
44
43
33
27
18
65
25
30
31
32
66
2
3
6
-1
EOF
